array [1..2] of int: X_INTRODUCED_4_ = [1,-1];
array [1..2] of int: X_INTRODUCED_6_ = [-1,1];
array [1..3] of int: X_INTRODUCED_58_ = [1,-1,-1];
var 1..4: X_INTRODUCED_0_;
var 1..4: X_INTRODUCED_1_;
var 1..4: X_INTRODUCED_2_;
var 1..4: X_INTRODUCED_3_;
var -3..3: X_INTRODUCED_5_ ::var_is_introduced :: is_defined_var;
var bool: X_INTRODUCED_7_ ::var_is_introduced :: is_defined_var;
var -3..3: X_INTRODUCED_8_ ::var_is_introduced :: is_defined_var;
var bool: X_INTRODUCED_9_ ::var_is_introduced :: is_defined_var;
var bool: X_INTRODUCED_10_ ::var_is_introduced :: is_defined_var;
var -3..3: X_INTRODUCED_11_ ::var_is_introduced :: is_defined_var;
var bool: X_INTRODUCED_12_ ::var_is_introduced :: is_defined_var;
var -3..3: X_INTRODUCED_13_ ::var_is_introduced :: is_defined_var;
var bool: X_INTRODUCED_14_ ::var_is_introduced :: is_defined_var;
var bool: X_INTRODUCED_15_ ::var_is_introduced :: is_defined_var;
var 0..2: S:: is_defined_var:: output_var;
var 0..1: X_INTRODUCED_16_ ::var_is_introduced :: is_defined_var;
var 0..1: X_INTRODUCED_17_ ::var_is_introduced :: is_defined_var;
var 0..2: M:: output_var;
var bool: X_INTRODUCED_20_ ::var_is_introduced :: is_defined_var;
var bool: X_INTRODUCED_22_ ::var_is_introduced :: is_defined_var;
var 0..1: X_INTRODUCED_23_ ::var_is_introduced :: is_defined_var;
var bool: X_INTRODUCED_25_ ::var_is_introduced :: is_defined_var;
var bool: X_INTRODUCED_26_ ::var_is_introduced :: is_defined_var;
var bool: X_INTRODUCED_27_ ::var_is_introduced :: is_defined_var;
var 0..1: X_INTRODUCED_28_ ::var_is_introduced :: is_defined_var;
var bool: X_INTRODUCED_31_ ::var_is_introduced :: is_defined_var;
var 0..1: X_INTRODUCED_32_ ::var_is_introduced :: is_defined_var;
var bool: X_INTRODUCED_34_ ::var_is_introduced :: is_defined_var;
var bool: X_INTRODUCED_35_ ::var_is_introduced :: is_defined_var;
var 0..1: X_INTRODUCED_36_ ::var_is_introduced :: is_defined_var;
var 0..2: X_INTRODUCED_38_ ::var_is_introduced :: is_defined_var;
var bool: X_INTRODUCED_39_ ::var_is_introduced :: is_defined_var;
var bool: X_INTRODUCED_40_ ::var_is_introduced :: is_defined_var;
var 0..1: X_INTRODUCED_41_ ::var_is_introduced :: is_defined_var;
var bool: X_INTRODUCED_42_ ::var_is_introduced :: is_defined_var;
var bool: X_INTRODUCED_43_ ::var_is_introduced :: is_defined_var;
var 0..1: X_INTRODUCED_44_ ::var_is_introduced :: is_defined_var;
var 0..2: X_INTRODUCED_45_ ::var_is_introduced :: is_defined_var;
var bool: X_INTRODUCED_46_ ::var_is_introduced :: is_defined_var;
var 0..1: X_INTRODUCED_47_ ::var_is_introduced :: is_defined_var;
var bool: X_INTRODUCED_48_ ::var_is_introduced :: is_defined_var;
var 0..1: X_INTRODUCED_49_ ::var_is_introduced :: is_defined_var;
var 0..2: X_INTRODUCED_50_ ::var_is_introduced :: is_defined_var;
var 0..2: X_INTRODUCED_54_ ::var_is_introduced :: is_defined_var;
var 0..2: X_INTRODUCED_59_ ::var_is_introduced :: is_defined_var;
var 0..2: X_INTRODUCED_60_ ::var_is_introduced :: is_defined_var;
var -3..3: X_INTRODUCED_63_ ::var_is_introduced :: is_defined_var;
var -3..3: X_INTRODUCED_65_ ::var_is_introduced :: is_defined_var;
var -3..3: X_INTRODUCED_67_ ::var_is_introduced :: is_defined_var;
var bool: X_INTRODUCED_68_ ::var_is_introduced :: is_defined_var;
var 0..1: X_INTRODUCED_69_ ::var_is_introduced :: is_defined_var;
var bool: X_INTRODUCED_70_ ::var_is_introduced :: is_defined_var;
var 0..1: X_INTRODUCED_71_ ::var_is_introduced :: is_defined_var;
var -16..170: obj:: is_defined_var:: output_var;
array [1..4] of var int: pfc:: output_array([1..4]) = [X_INTRODUCED_0_,X_INTRODUCED_1_,X_INTRODUCED_2_,X_INTRODUCED_3_];
constraint int_lin_eq(X_INTRODUCED_58_,[X_INTRODUCED_54_,X_INTRODUCED_28_,X_INTRODUCED_23_],0):: defines_var(X_INTRODUCED_54_);
constraint int_max(X_INTRODUCED_38_,X_INTRODUCED_54_,X_INTRODUCED_59_):: defines_var(X_INTRODUCED_59_);
constraint int_max(X_INTRODUCED_45_,X_INTRODUCED_59_,X_INTRODUCED_60_):: defines_var(X_INTRODUCED_60_);
constraint int_max(X_INTRODUCED_50_,X_INTRODUCED_60_,M):: defines_var(M);
constraint int_max(X_INTRODUCED_8_,X_INTRODUCED_13_,X_INTRODUCED_63_):: defines_var(X_INTRODUCED_63_);
constraint int_max(X_INTRODUCED_5_,X_INTRODUCED_11_,X_INTRODUCED_65_):: defines_var(X_INTRODUCED_65_);
constraint int_max(X_INTRODUCED_63_,X_INTRODUCED_65_,X_INTRODUCED_67_):: defines_var(X_INTRODUCED_67_);
constraint int_lin_ne(X_INTRODUCED_4_,[X_INTRODUCED_0_,X_INTRODUCED_1_],0);
constraint int_lin_ne(X_INTRODUCED_4_,[X_INTRODUCED_0_,X_INTRODUCED_2_],0);
constraint int_lin_ne(X_INTRODUCED_4_,[X_INTRODUCED_0_,X_INTRODUCED_3_],0);
constraint int_lin_ne(X_INTRODUCED_4_,[X_INTRODUCED_1_,X_INTRODUCED_2_],0);
constraint int_lin_ne(X_INTRODUCED_4_,[X_INTRODUCED_1_,X_INTRODUCED_3_],0);
constraint int_lin_ne(X_INTRODUCED_4_,[X_INTRODUCED_2_,X_INTRODUCED_3_],0);
constraint int_lin_le(X_INTRODUCED_4_,[X_INTRODUCED_3_,X_INTRODUCED_1_],-1);
constraint int_lin_eq([1,-1,-1],[X_INTRODUCED_2_,X_INTRODUCED_0_,X_INTRODUCED_5_],0):: defines_var(X_INTRODUCED_5_);
constraint int_lin_le_reif(X_INTRODUCED_6_,[X_INTRODUCED_2_,X_INTRODUCED_0_],-2,X_INTRODUCED_7_):: defines_var(X_INTRODUCED_7_);
constraint int_lin_eq([1,-1,-1],[X_INTRODUCED_0_,X_INTRODUCED_2_,X_INTRODUCED_8_],0):: defines_var(X_INTRODUCED_8_);
constraint int_lin_le_reif(X_INTRODUCED_6_,[X_INTRODUCED_0_,X_INTRODUCED_2_],-2,X_INTRODUCED_9_):: defines_var(X_INTRODUCED_9_);
constraint array_bool_or([X_INTRODUCED_7_,X_INTRODUCED_9_],X_INTRODUCED_10_):: defines_var(X_INTRODUCED_10_);
constraint int_lin_eq([1,-1,-1],[X_INTRODUCED_3_,X_INTRODUCED_1_,X_INTRODUCED_11_],0):: defines_var(X_INTRODUCED_11_);
constraint int_lin_le_reif(X_INTRODUCED_6_,[X_INTRODUCED_3_,X_INTRODUCED_1_],-2,X_INTRODUCED_12_):: defines_var(X_INTRODUCED_12_);
constraint int_lin_eq([1,-1,-1],[X_INTRODUCED_1_,X_INTRODUCED_3_,X_INTRODUCED_13_],0):: defines_var(X_INTRODUCED_13_);
constraint int_lin_le_reif(X_INTRODUCED_6_,[X_INTRODUCED_1_,X_INTRODUCED_3_],-2,X_INTRODUCED_14_):: defines_var(X_INTRODUCED_14_);
constraint array_bool_or([X_INTRODUCED_12_,X_INTRODUCED_14_],X_INTRODUCED_15_):: defines_var(X_INTRODUCED_15_);
constraint int_lin_eq([1,1,-1],[X_INTRODUCED_16_,X_INTRODUCED_17_,S],0):: defines_var(S);
constraint bool2int(X_INTRODUCED_10_,X_INTRODUCED_16_):: defines_var(X_INTRODUCED_16_);
constraint bool2int(X_INTRODUCED_15_,X_INTRODUCED_17_):: defines_var(X_INTRODUCED_17_);
constraint int_lin_le_reif(X_INTRODUCED_4_,[X_INTRODUCED_0_,X_INTRODUCED_1_],-1,X_INTRODUCED_20_):: defines_var(X_INTRODUCED_20_);
constraint int_lin_le(X_INTRODUCED_4_,[X_INTRODUCED_3_,X_INTRODUCED_0_],-1);
constraint array_bool_and([X_INTRODUCED_20_],X_INTRODUCED_22_):: defines_var(X_INTRODUCED_22_);
constraint bool2int(X_INTRODUCED_22_,X_INTRODUCED_23_):: defines_var(X_INTRODUCED_23_);
constraint int_lin_le_reif(X_INTRODUCED_4_,[X_INTRODUCED_0_,X_INTRODUCED_3_],-1,X_INTRODUCED_25_):: defines_var(X_INTRODUCED_25_);
constraint int_lin_le_reif(X_INTRODUCED_4_,[X_INTRODUCED_1_,X_INTRODUCED_0_],-1,X_INTRODUCED_26_):: defines_var(X_INTRODUCED_26_);
constraint array_bool_and([X_INTRODUCED_25_,X_INTRODUCED_26_],X_INTRODUCED_27_):: defines_var(X_INTRODUCED_27_);
constraint bool2int(X_INTRODUCED_27_,X_INTRODUCED_28_):: defines_var(X_INTRODUCED_28_);
constraint int_lin_le(X_INTRODUCED_4_,[X_INTRODUCED_2_,X_INTRODUCED_1_],-1);
constraint array_bool_and([X_INTRODUCED_26_],X_INTRODUCED_31_):: defines_var(X_INTRODUCED_31_);
constraint bool2int(X_INTRODUCED_31_,X_INTRODUCED_32_):: defines_var(X_INTRODUCED_32_);
constraint int_lin_le_reif(X_INTRODUCED_4_,[X_INTRODUCED_1_,X_INTRODUCED_2_],-1,X_INTRODUCED_34_):: defines_var(X_INTRODUCED_34_);
constraint array_bool_and([X_INTRODUCED_20_,X_INTRODUCED_34_],X_INTRODUCED_35_):: defines_var(X_INTRODUCED_35_);
constraint bool2int(X_INTRODUCED_35_,X_INTRODUCED_36_):: defines_var(X_INTRODUCED_36_);
constraint int_lin_eq([1,1,-1],[X_INTRODUCED_36_,X_INTRODUCED_32_,X_INTRODUCED_38_],0):: defines_var(X_INTRODUCED_38_);
constraint int_lin_le_reif(X_INTRODUCED_4_,[X_INTRODUCED_3_,X_INTRODUCED_2_],-1,X_INTRODUCED_39_):: defines_var(X_INTRODUCED_39_);
constraint array_bool_and([X_INTRODUCED_39_],X_INTRODUCED_40_):: defines_var(X_INTRODUCED_40_);
constraint bool2int(X_INTRODUCED_40_,X_INTRODUCED_41_):: defines_var(X_INTRODUCED_41_);
constraint int_lin_le_reif(X_INTRODUCED_4_,[X_INTRODUCED_2_,X_INTRODUCED_3_],-1,X_INTRODUCED_42_):: defines_var(X_INTRODUCED_42_);
constraint array_bool_and([X_INTRODUCED_34_,X_INTRODUCED_42_],X_INTRODUCED_43_):: defines_var(X_INTRODUCED_43_);
constraint bool2int(X_INTRODUCED_43_,X_INTRODUCED_44_):: defines_var(X_INTRODUCED_44_);
constraint int_lin_eq([1,1,-1],[X_INTRODUCED_44_,X_INTRODUCED_41_,X_INTRODUCED_45_],0):: defines_var(X_INTRODUCED_45_);
constraint array_bool_and([X_INTRODUCED_42_],X_INTRODUCED_46_):: defines_var(X_INTRODUCED_46_);
constraint bool2int(X_INTRODUCED_46_,X_INTRODUCED_47_):: defines_var(X_INTRODUCED_47_);
constraint array_bool_and([X_INTRODUCED_25_,X_INTRODUCED_39_],X_INTRODUCED_48_):: defines_var(X_INTRODUCED_48_);
constraint bool2int(X_INTRODUCED_48_,X_INTRODUCED_49_):: defines_var(X_INTRODUCED_49_);
constraint int_lin_eq([1,1,-1],[X_INTRODUCED_49_,X_INTRODUCED_47_,X_INTRODUCED_50_],0):: defines_var(X_INTRODUCED_50_);
constraint int_lin_le_reif(X_INTRODUCED_6_,[X_INTRODUCED_0_,X_INTRODUCED_1_],-1,X_INTRODUCED_68_):: defines_var(X_INTRODUCED_68_);
constraint bool2int(X_INTRODUCED_68_,X_INTRODUCED_69_):: defines_var(X_INTRODUCED_69_);
constraint int_lin_le_reif(X_INTRODUCED_6_,[X_INTRODUCED_3_,X_INTRODUCED_2_],-1,X_INTRODUCED_70_):: defines_var(X_INTRODUCED_70_);
constraint bool2int(X_INTRODUCED_70_,X_INTRODUCED_71_):: defines_var(X_INTRODUCED_71_);
constraint int_lin_eq([4,16,64,64,1,1,-1],[X_INTRODUCED_67_,M,X_INTRODUCED_16_,X_INTRODUCED_17_,X_INTRODUCED_69_,X_INTRODUCED_71_,obj],4):: defines_var(obj);
solve  minimize obj;
